50
1 0 268
2 0 52
2 1 157
3 0 74
3 1 120
3 2 233
4 0 80
4 1 189
5 0 164
5 1 4
5 3 52
5 4 30
6 2 37
6 3 69
6 4 270
6 5 96
7 0 178
7 1 302
7 2 274
7 4 286
7 5 229
7 6 192
8 0 110
8 2 260
8 3 294
8 4 228
8 5 230
8 6 159
9 0 34
9 1 169
9 2 138
9 3 288
9 4 319
9 6 300
9 7 266
10 0 223
10 2 246
10 3 34
10 4 124
10 5 40
10 7 189
10 8 287
10 9 216
11 0 27
11 1 152
11 2 269
11 3 232
11 4 106
11 6 107
11 7 141
11 8 33
11 9 216
11 10 231
12 0 65
12 1 259
12 2 29
12 3 40
12 4 123
12 6 154
12 7 269
12 8 164
12 9 221
12 10 123
12 11 237
13 0 168
13 1 116
13 2 77
13 3 45
13 4 49
13 5 144
13 6 124
13 8 31
13 9 191
13 10 38
13 12 262
14 0 78
14 1 62
14 2 25
14 3 198
14 4 152
14 5 120
14 6 293
14 7 110
14 8 159
14 9 160
14 10 129
14 11 20
14 12 149
14 13 214
15 0 5
15 1 206
15 2 184
15 3 160
15 4 5
15 5 118
15 6 298
15 7 270
15 11 140
15 12 94
15 14 24
16 0 295
16 1 260
16 2 4
16 3 152
16 5 1
16 7 316
16 8 144
16 9 198
16 10 215
16 11 217
16 14 275
16 15 282
17 0 60
17 2 256
17 3 217
17 4 40
17 6 263
17 9 270
17 10 196
17 11 134
17 12 124
17 13 307
17 14 49
17 15 276
17 16 38
18 0 2
18 1 49
18 2 126
18 3 80
18 4 127
18 5 293
18 7 70
18 8 68
18 9 101
18 10 298
18 11 141
18 12 266
18 13 222
18 15 178
18 16 58
18 17 147
19 0 47
19 1 36
19 2 202
19 3 51
19 4 24
19 6 159
19 9 163
19 10 240
19 11 117
19 13 43
19 14 68
19 15 240
19 16 5
19 18 240
20 0 238
20 2 300
20 3 249
20 4 116
20 5 213
20 6 244
20 7 136
20 9 297
20 10 223
20 12 31
20 14 270
20 15 68
20 16 165
20 17 41
20 18 233
20 19 16
21 1 220
21 2 171
21 3 282
21 4 272
21 5 218
21 6 210
21 7 127
21 8 317
21 9 30
21 10 245
21 11 280
21 12 123
21 13 273
21 14 226
21 15 214
21 16 82
21 17 190
21 18 172
21 20 309
22 3 308
22 4 24
22 6 190
22 8 105
22 9 309
22 10 266
22 12 234
22 13 181
22 14 191
22 15 52
22 16 233
22 17 268
22 18 31
22 19 314
22 20 19
23 0 43
23 1 80
23 2 318
23 3 92
23 4 172
23 5 138
23 6 53
23 7 179
23 8 232
23 9 274
23 10 269
23 11 265
23 12 57
23 13 290
23 14 48
23 16 194
23 20 27
23 21 137
24 1 256
24 3 222
24 4 203
24 5 290
24 6 201
24 7 139
24 10 191
24 11 131
24 12 207
24 13 275
24 14 187
24 15 66
24 17 280
24 18 147
24 19 286
24 20 290
24 21 43
24 23 31
25 0 24
25 1 236
25 2 89
25 3 184
25 5 199
25 6 170
25 8 206
25 9 109
25 10 114
25 11 63
25 12 26
25 13 265
25 14 311
25 15 212
25 16 314
25 17 262
25 18 25
25 19 209
25 20 203
25 21 210
25 22 83
25 23 183
25 24 257
26 1 85
26 2 56
26 3 60
26 4 304
26 7 8
26 8 291
26 9 237
26 10 304
26 11 242
26 13 25
26 14 276
26 17 188
26 19 119
26 21 180
26 22 206
26 23 114
26 24 242
26 25 129
27 1 318
27 2 164
27 3 4
27 4 208
27 6 11
27 7 34
27 8 190
27 9 246
27 11 262
27 13 304
27 14 265
27 15 74
27 16 47
27 18 121
27 19 135
27 20 93
27 21 103
27 22 107
27 24 263
27 25 16
27 26 90
28 0 283
28 1 132
28 2 183
28 3 301
28 4 271
28 5 113
28 8 118
28 10 42
28 11 18
28 12 208
28 13 178
28 14 195
28 15 11
28 16 170
28 17 178
28 18 224
28 19 13
28 20 315
28 21 190
28 22 258
28 23 58
28 24 147
28 25 259
28 26 258
28 27 151
29 0 310
29 2 262
29 3 121
29 4 146
29 6 292
29 7 118
29 8 242
29 9 223
29 11 183
29 13 278
29 15 142
29 17 126
29 18 110
29 19 46
29 20 20
29 21 112
29 23 57
29 24 39
29 25 40
29 28 127
30 0 177
30 2 181
30 3 21
30 4 155
30 5 98
30 6 277
30 7 110
30 8 267
30 9 297
30 10 2
30 11 23
30 13 311
30 14 264
30 15 15
30 16 277
30 17 43
30 18 304
30 20 59
30 21 224
30 22 58
30 23 72
30 24 311
30 25 215
30 26 157
30 27 224
30 28 86
30 29 151
31 0 254
31 1 120
31 3 70
31 4 71
31 7 221
31 8 118
31 9 182
31 10 267
31 11 92
31 12 292
31 13 63
31 14 245
31 15 270
31 17 166
31 18 115
31 19 158
31 21 209
31 22 74
31 23 198
31 24 318
31 25 86
31 26 34
31 27 138
31 28 234
31 29 165
32 0 245
32 1 193
32 2 124
32 3 98
32 4 281
32 5 2
32 6 257
32 7 41
32 8 197
32 11 77
32 12 139
32 13 230
32 14 161
32 15 105
32 17 303
32 19 77
32 20 228
32 23 100
32 24 301
32 25 265
32 28 284
32 30 26
32 31 80
33 0 231
33 1 139
33 2 38
33 4 151
33 5 95
33 6 54
33 7 109
33 9 251
33 10 210
33 11 74
33 12 180
33 13 41
33 15 97
33 17 113
33 18 199
33 19 169
33 20 308
33 21 156
33 22 67
33 23 312
33 24 225
33 26 159
33 27 279
33 28 126
33 29 309
33 30 252
34 1 217
34 2 167
34 3 255
34 4 75
34 5 300
34 6 279
34 7 85
34 10 169
34 11 218
34 12 90
34 13 174
34 14 208
34 15 268
34 16 40
34 17 304
34 18 14
34 19 122
34 20 254
34 21 169
34 22 127
34 23 80
34 24 235
34 25 312
34 27 122
34 28 2
34 29 114
34 30 18
34 31 308
34 32 271
34 33 69
35 2 29
35 3 189
35 4 39
35 5 253
35 6 274
35 7 304
35 8 239
35 9 307
35 10 188
35 11 135
35 12 241
35 13 11
35 14 320
35 15 164
35 16 137
35 17 111
35 18 189
35 20 306
35 21 50
35 22 90
35 23 225
35 24 130
35 25 129
35 26 157
35 27 207
35 28 100
35 30 234
35 31 206
35 32 41
35 33 162
36 0 66
36 1 103
36 2 7
36 3 254
36 4 9
36 6 98
36 7 48
36 10 195
36 11 183
36 13 245
36 14 47
36 16 251
36 17 122
36 18 7
36 19 308
36 20 224
36 27 145
36 29 57
36 30 225
36 31 108
36 32 281
36 33 98
36 34 254
36 35 110
37 0 86
37 1 180
37 2 170
37 3 211
37 4 318
37 6 263
37 7 264
37 8 213
37 9 193
37 10 186
37 11 236
37 13 48
37 14 235
37 16 108
37 17 42
37 19 208
37 20 49
37 21 114
37 22 220
37 23 172
37 25 257
37 26 97
37 27 42
37 28 222
37 29 10
37 30 214
37 31 83
37 32 255
37 33 12
37 34 66
37 35 210
37 36 6
38 0 251
38 1 37
38 2 196
38 3 230
38 4 79
38 5 97
38 6 195
38 7 41
38 8 72
38 9 163
38 10 279
38 11 162
38 12 34
38 13 132
38 14 313
38 15 243
38 16 45
38 17 11
38 18 233
38 19 177
38 23 311
38 24 200
38 25 237
38 26 67
38 27 133
38 29 148
38 30 260
38 31 20
38 32 76
38 33 307
38 34 19
38 35 137
38 36 278
38 37 208
39 1 113
39 3 198
39 4 35
39 7 129
39 8 8
39 10 98
39 11 295
39 12 85
39 13 11
39 14 121
39 16 279
39 17 264
39 20 81
39 21 227
39 22 150
39 25 294
39 26 64
39 27 112
39 29 196
39 30 233
39 31 180
39 33 207
39 34 239
39 35 175
39 36 71
39 37 284
39 38 306
40 1 35
40 3 40
40 4 45
40 5 209
40 6 187
40 7 64
40 9 294
40 10 238
40 12 245
40 13 264
40 16 187
40 17 147
40 19 107
40 20 38
40 21 223
40 22 138
40 24 237
40 25 278
40 26 271
40 29 251
40 30 203
40 32 256
40 33 168
40 34 31
40 35 164
40 37 222
40 39 112
41 0 154
41 1 209
41 2 74
41 4 211
41 5 86
41 6 210
41 7 298
41 8 280
41 9 217
41 10 129
41 11 79
41 12 279
41 13 243
41 14 119
41 15 110
41 16 122
41 18 248
41 19 260
41 20 158
41 22 136
41 23 226
41 25 212
41 26 274
41 27 150
41 28 306
41 29 180
41 30 47
41 32 187
41 33 10
41 34 54
41 35 46
41 36 144
41 37 69
41 38 199
41 39 182
41 40 120
42 0 226
42 1 305
42 2 247
42 3 44
42 4 40
42 5 259
42 6 266
42 7 144
42 8 314
42 9 269
42 12 246
42 13 120
42 14 89
42 15 202
42 16 109
42 17 76
42 18 116
42 20 36
42 21 260
42 22 268
42 24 34
42 25 31
42 26 249
42 28 224
42 29 212
42 32 95
42 33 150
42 36 310
42 38 231
42 39 12
42 41 147
43 0 95
43 1 33
43 2 115
43 4 141
43 5 42
43 6 98
43 7 119
43 8 302
43 9 241
43 10 230
43 11 160
43 12 76
43 13 137
43 14 247
43 15 239
43 16 110
43 17 220
43 18 21
43 22 107
43 24 180
43 25 46
43 26 126
43 27 165
43 28 315
43 29 146
43 30 225
43 31 199
43 33 317
43 34 2
43 35 274
43 36 254
43 37 190
43 38 217
43 40 215
43 42 264
44 1 281
44 2 79
44 3 60
44 4 213
44 6 271
44 7 244
44 9 58
44 10 282
44 11 132
44 12 107
44 13 144
44 14 92
44 15 310
44 16 138
44 18 222
44 20 223
44 22 320
44 23 122
44 25 307
44 26 30
44 27 284
44 28 105
44 30 300
44 31 250
44 32 239
44 33 189
44 34 180
44 36 216
44 37 268
44 38 189
44 39 65
44 40 13
44 41 107
44 42 97
44 43 244
45 0 205
45 1 7
45 2 170
45 3 218
45 4 165
45 5 259
45 6 138
45 7 261
45 9 2
45 10 292
45 11 219
45 12 79
45 13 154
45 14 132
45 15 55
45 16 118
45 17 138
45 18 295
45 19 241
45 20 294
45 21 157
45 22 302
45 23 91
45 24 38
45 25 113
45 26 185
45 27 55
45 28 154
45 29 202
45 30 188
45 31 21
45 32 10
45 33 158
45 34 159
45 35 306
45 36 266
45 37 47
45 38 16
45 40 230
45 42 171
45 44 5
46 0 279
46 1 256
46 2 203
46 3 267
46 5 245
46 6 60
46 7 129
46 8 94
46 9 221
46 10 44
46 11 163
46 12 20
46 13 82
46 14 222
46 15 288
46 16 283
46 17 163
46 18 12
46 20 290
46 22 75
46 23 81
46 24 123
46 26 151
46 27 155
46 28 72
46 29 34
46 31 131
46 32 281
46 33 270
46 34 219
46 36 147
46 37 201
46 38 123
46 40 168
46 42 279
46 43 296
46 44 302
46 45 23
47 0 85
47 1 85
47 2 149
47 3 262
47 4 153
47 5 53
47 6 235
47 7 58
47 8 15
47 9 301
47 10 192
47 11 284
47 12 68
47 15 142
47 16 136
47 18 264
47 19 108
47 21 90
47 22 141
47 23 48
47 24 253
47 25 201
47 28 67
47 29 263
47 30 303
47 32 309
47 33 271
47 35 133
47 37 19
47 38 270
47 40 43
47 41 98
47 42 238
47 44 16
47 45 140
47 46 65
48 0 179
48 1 222
48 3 271
48 4 160
48 5 119
48 6 225
48 7 185
48 8 23
48 9 294
48 10 272
48 11 46
48 12 47
48 13 132
48 14 221
48 15 194
48 17 281
48 18 179
48 19 62
48 20 320
48 21 170
48 23 137
48 26 75
48 27 63
48 28 248
48 29 40
48 30 48
48 31 38
48 32 110
48 34 232
48 35 56
48 36 161
48 38 153
48 39 136
48 40 145
48 42 280
48 43 128
48 44 99
48 45 40
48 46 119
48 47 32
49 0 307
49 1 220
49 2 187
49 4 179
49 5 235
49 6 78
49 7 130
49 8 202
49 9 218
49 10 104
49 12 314
49 13 266
49 14 314
49 16 289
49 17 285
49 18 115
49 19 147
49 20 286
49 22 252
49 23 221
49 24 84
49 25 4
49 26 308
49 27 253
49 28 137
49 29 71
49 31 315
49 34 55
49 35 256
49 36 100
49 37 146
49 39 95
49 40 225
49 41 252
49 42 198
49 43 156
49 44 186
49 45 320
49 46 93
49 47 126
49 48 280
